NAME 
OBJSENSE MAX
ROWS
 N  OBJ
 L  packing[0]
 L  packing[1]
 L  packing[2]
 L  packing[3]
 L  packing[4]
 L  packing[5]
 L  packing[6]
 L  packing[7]
 L  packing[8]
 L  packing[9]
 L  packing[10]
 L  packing[11]
 L  packing[12]
 L  packing[13]
 L  packing[14]
 L  packing[15]
 L  packing[16]
 L  packing[17]
 L  packing[18]
 L  packing[19]
 L  packing[20]
 L  packing[21]
 L  packing[22]
 L  packing[23]
 L  packing[24]
 L  packing[25]
 L  packing[26]
 L  packing[27]
 L  packing[28]
 L  packing[29]
 L  packing[30]
 L  packing[31]
 L  packing[32]
 L  packing[33]
 L  packing[34]
 L  packing[35]
 L  packing[36]
 L  packing[37]
 L  packing[38]
 L  packing[39]
 L  packing[40]
 L  packing[41]
 L  packing[42]
 L  packing[43]
 L  packing[44]
 L  packing[45]
 L  packing[46]
 L  packing[47]
 L  packing[48]
 L  packing[49]
 L  R59     
COLUMNS
    MARKER    'MARKER'                 'INTORG'
    x[1]      OBJ       79
    x[1]      packing[0]  84
    x[1]      packing[3]  75
    x[1]      packing[4]  182
    x[1]      packing[5]  95
    x[1]      packing[6]  102
    x[1]      packing[7]  116
    x[1]      packing[8]  108
    x[1]      packing[9]  199
    x[1]      packing[10]  56
    x[1]      packing[11]  13
    x[1]      packing[13]  179
    x[1]      packing[14]  11
    x[1]      packing[15]  46
    x[1]      packing[16]  170
    x[1]      packing[17]  7
    x[1]      packing[18]  108
    x[1]      packing[19]  54
    x[1]      packing[20]  182
    x[1]      packing[22]  135
    x[1]      packing[23]  75
    x[1]      packing[25]  108
    x[1]      packing[26]  19
    x[1]      packing[27]  128
    x[1]      packing[31]  57
    x[1]      packing[32]  53
    x[1]      packing[33]  172
    x[1]      packing[35]  6
    x[1]      packing[36]  62
    x[1]      packing[37]  31
    x[1]      packing[39]  103
    x[1]      packing[40]  187
    x[1]      packing[41]  25
    x[1]      packing[42]  155
    x[1]      packing[44]  101
    x[1]      packing[45]  7
    x[1]      packing[46]  175
    x[1]      packing[47]  159
    x[1]      packing[48]  3
    x[1]      R59       1
    x[2]      OBJ       129
    x[2]      packing[1]  117
    x[2]      packing[2]  84
    x[2]      packing[3]  126
    x[2]      packing[6]  5
    x[2]      packing[7]  36
    x[2]      packing[8]  38
    x[2]      packing[10]  70
    x[2]      packing[11]  68
    x[2]      packing[12]  187
    x[2]      packing[14]  82
    x[2]      packing[15]  40
    x[2]      packing[17]  187
    x[2]      packing[18]  67
    x[2]      packing[19]  20
    x[2]      packing[20]  57
    x[2]      packing[23]  24
    x[2]      packing[25]  50
    x[2]      packing[26]  157
    x[2]      packing[27]  93
    x[2]      packing[29]  189
    x[2]      packing[30]  166
    x[2]      packing[31]  65
    x[2]      packing[32]  12
    x[2]      packing[33]  64
    x[2]      packing[34]  64
    x[2]      packing[35]  87
    x[2]      packing[38]  82
    x[2]      packing[39]  19
    x[2]      packing[41]  122
    x[2]      packing[42]  64
    x[2]      packing[43]  79
    x[2]      packing[44]  29
    x[2]      packing[45]  4
    x[2]      packing[46]  146
    x[2]      packing[49]  137
    x[3]      OBJ       147
    x[3]      packing[0]  8
    x[3]      packing[2]  193
    x[3]      packing[3]  73
    x[3]      packing[4]  131
    x[3]      packing[5]  135
    x[3]      packing[6]  29
    x[3]      packing[7]  198
    x[3]      packing[8]  150
    x[3]      packing[9]  23
    x[3]      packing[10]  124
    x[3]      packing[11]  50
    x[3]      packing[12]  95
    x[3]      packing[17]  86
    x[3]      packing[21]  81
    x[3]      packing[22]  56
    x[3]      packing[23]  187
    x[3]      packing[25]  61
    x[3]      packing[26]  196
    x[3]      packing[27]  95
    x[3]      packing[29]  18
    x[3]      packing[30]  197
    x[3]      packing[31]  28
    x[3]      packing[32]  60
    x[3]      packing[33]  31
    x[3]      packing[35]  91
    x[3]      packing[37]  110
    x[3]      packing[38]  29
    x[3]      packing[40]  194
    x[3]      packing[42]  75
    x[3]      packing[44]  99
    x[3]      packing[45]  135
    x[3]      packing[47]  16
    x[3]      packing[48]  127
    x[3]      packing[49]  182
    x[4]      OBJ       65
    x[4]      packing[2]  8
    x[4]      packing[5]  66
    x[4]      packing[6]  46
    x[4]      packing[7]  26
    x[4]      packing[8]  97
    x[4]      packing[9]  122
    x[4]      packing[10]  197
    x[4]      packing[11]  131
    x[4]      packing[12]  82
    x[4]      packing[13]  65
    x[4]      packing[15]  113
    x[4]      packing[16]  155
    x[4]      packing[17]  108
    x[4]      packing[18]  189
    x[4]      packing[20]  79
    x[4]      packing[22]  197
    x[4]      packing[23]  93
    x[4]      packing[25]  120
    x[4]      packing[26]  128
    x[4]      packing[27]  82
    x[4]      packing[28]  149
    x[4]      packing[29]  70
    x[4]      packing[31]  92
    x[4]      packing[32]  3
    x[4]      packing[33]  76
    x[4]      packing[35]  50
    x[4]      packing[36]  175
    x[4]      packing[37]  76
    x[4]      packing[38]  150
    x[4]      packing[39]  30
    x[4]      packing[40]  20
    x[4]      packing[41]  199
    x[4]      packing[42]  146
    x[4]      packing[43]  87
    x[4]      packing[45]  54
    x[4]      packing[46]  1
    x[4]      packing[47]  52
    x[4]      packing[48]  109
    x[4]      R59       1
    x[5]      OBJ       5
    x[5]      packing[0]  191
    x[5]      packing[1]  186
    x[5]      packing[2]  27
    x[5]      packing[3]  11
    x[5]      packing[8]  141
    x[5]      packing[9]  20
    x[5]      packing[10]  113
    x[5]      packing[12]  150
    x[5]      packing[15]  98
    x[5]      packing[18]  130
    x[5]      packing[19]  53
    x[5]      packing[20]  9
    x[5]      packing[21]  158
    x[5]      packing[22]  86
    x[5]      packing[23]  31
    x[5]      packing[24]  6
    x[5]      packing[25]  77
    x[5]      packing[26]  139
    x[5]      packing[27]  112
    x[5]      packing[28]  120
    x[5]      packing[29]  149
    x[5]      packing[30]  104
    x[5]      packing[31]  188
    x[5]      packing[33]  177
    x[5]      packing[34]  161
    x[5]      packing[35]  161
    x[5]      packing[36]  189
    x[5]      packing[37]  157
    x[5]      packing[38]  12
    x[5]      packing[39]  92
    x[5]      packing[40]  100
    x[5]      packing[41]  182
    x[5]      packing[42]  83
    x[5]      packing[43]  175
    x[5]      packing[44]  84
    x[5]      packing[45]  61
    x[5]      packing[46]  137
    x[5]      packing[47]  59
    x[5]      packing[48]  192
    x[6]      OBJ       58
    x[6]      packing[0]  145
    x[6]      packing[2]  24
    x[6]      packing[3]  165
    x[6]      packing[4]  140
    x[6]      packing[5]  53
    x[6]      packing[6]  123
    x[6]      packing[8]  186
    x[6]      packing[9]  61
    x[6]      packing[11]  63
    x[6]      packing[12]  67
    x[6]      packing[13]  138
    x[6]      packing[14]  95
    x[6]      packing[15]  138
    x[6]      packing[16]  108
    x[6]      packing[18]  198
    x[6]      packing[20]  115
    x[6]      packing[22]  103
    x[6]      packing[23]  63
    x[6]      packing[24]  29
    x[6]      packing[25]  34
    x[6]      packing[26]  135
    x[6]      packing[28]  181
    x[6]      packing[29]  35
    x[6]      packing[30]  29
    x[6]      packing[31]  57
    x[6]      packing[32]  115
    x[6]      packing[33]  186
    x[6]      packing[34]  66
    x[6]      packing[35]  22
    x[6]      packing[36]  92
    x[6]      packing[37]  156
    x[6]      packing[38]  99
    x[6]      packing[39]  113
    x[6]      packing[40]  37
    x[6]      packing[42]  159
    x[6]      packing[44]  13
    x[6]      packing[45]  1
    x[6]      packing[48]  26
    x[6]      packing[49]  163
    x[7]      OBJ       59
    x[7]      packing[0]  191
    x[7]      packing[1]  82
    x[7]      packing[2]  151
    x[7]      packing[3]  25
    x[7]      packing[4]  100
    x[7]      packing[5]  7
    x[7]      packing[6]  178
    x[7]      packing[8]  125
    x[7]      packing[9]  103
    x[7]      packing[10]  75
    x[7]      packing[11]  6
    x[7]      packing[12]  81
    x[7]      packing[14]  169
    x[7]      packing[15]  109
    x[7]      packing[18]  167
    x[7]      packing[19]  117
    x[7]      packing[21]  197
    x[7]      packing[22]  149
    x[7]      packing[23]  128
    x[7]      packing[24]  4
    x[7]      packing[25]  172
    x[7]      packing[26]  151
    x[7]      packing[27]  80
    x[7]      packing[28]  21
    x[7]      packing[29]  102
    x[7]      packing[31]  160
    x[7]      packing[32]  131
    x[7]      packing[33]  46
    x[7]      packing[34]  9
    x[7]      packing[35]  8
    x[7]      packing[36]  171
    x[7]      packing[37]  89
    x[7]      packing[38]  186
    x[7]      packing[39]  160
    x[7]      packing[40]  49
    x[7]      packing[41]  78
    x[7]      packing[44]  196
    x[7]      packing[45]  141
    x[7]      packing[46]  194
    x[7]      packing[47]  51
    x[7]      packing[48]  197
    x[7]      packing[49]  48
    x[8]      OBJ       2
    x[8]      packing[0]  85
    x[8]      packing[1]  41
    x[8]      packing[2]  55
    x[8]      packing[3]  35
    x[8]      packing[4]  7
    x[8]      packing[5]  48
    x[8]      packing[7]  19
    x[8]      packing[8]  49
    x[8]      packing[9]  178
    x[8]      packing[11]  16
    x[8]      packing[13]  173
    x[8]      packing[14]  8
    x[8]      packing[16]  51
    x[8]      packing[18]  126
    x[8]      packing[19]  194
    x[8]      packing[20]  169
    x[8]      packing[22]  29
    x[8]      packing[23]  184
    x[8]      packing[24]  135
    x[8]      packing[25]  147
    x[8]      packing[26]  163
    x[8]      packing[27]  64
    x[8]      packing[29]  117
    x[8]      packing[31]  131
    x[8]      packing[32]  141
    x[8]      packing[33]  50
    x[8]      packing[35]  58
    x[8]      packing[36]  121
    x[8]      packing[38]  174
    x[8]      packing[40]  83
    x[8]      packing[41]  8
    x[8]      packing[43]  14
    x[8]      packing[44]  55
    x[8]      packing[45]  187
    x[8]      packing[46]  152
    x[8]      packing[47]  61
    x[8]      packing[48]  140
    x[8]      packing[49]  100
    x[9]      OBJ       46
    x[9]      packing[0]  30
    x[9]      packing[1]  68
    x[9]      packing[2]  1
    x[9]      packing[3]  50
    x[9]      packing[4]  164
    x[9]      packing[5]  172
    x[9]      packing[6]  59
    x[9]      packing[7]  127
    x[9]      packing[8]  146
    x[9]      packing[10]  78
    x[9]      packing[11]  69
    x[9]      packing[12]  128
    x[9]      packing[13]  70
    x[9]      packing[14]  163
    x[9]      packing[17]  170
    x[9]      packing[19]  155
    x[9]      packing[20]  33
    x[9]      packing[21]  105
    x[9]      packing[22]  79
    x[9]      packing[23]  33
    x[9]      packing[24]  84
    x[9]      packing[25]  21
    x[9]      packing[26]  77
    x[9]      packing[27]  70
    x[9]      packing[28]  13
    x[9]      packing[29]  142
    x[9]      packing[30]  107
    x[9]      packing[31]  183
    x[9]      packing[34]  163
    x[9]      packing[35]  124
    x[9]      packing[36]  13
    x[9]      packing[38]  44
    x[9]      packing[39]  95
    x[9]      packing[40]  122
    x[9]      packing[41]  35
    x[9]      packing[42]  119
    x[9]      packing[43]  65
    x[9]      packing[45]  135
    x[9]      packing[46]  53
    x[9]      packing[48]  93
    x[9]      packing[49]  68
    x[10]     OBJ       96
    x[10]     packing[0]  69
    x[10]     packing[1]  185
    x[10]     packing[3]  64
    x[10]     packing[5]  98
    x[10]     packing[6]  35
    x[10]     packing[7]  140
    x[10]     packing[8]  53
    x[10]     packing[10]  120
    x[10]     packing[12]  90
    x[10]     packing[13]  83
    x[10]     packing[15]  12
    x[10]     packing[16]  77
    x[10]     packing[17]  40
    x[10]     packing[20]  42
    x[10]     packing[23]  109
    x[10]     packing[25]  75
    x[10]     packing[26]  38
    x[10]     packing[27]  73
    x[10]     packing[28]  5
    x[10]     packing[29]  159
    x[10]     packing[30]  31
    x[10]     packing[31]  124
    x[10]     packing[32]  183
    x[10]     packing[33]  142
    x[10]     packing[34]  40
    x[10]     packing[35]  176
    x[10]     packing[36]  89
    x[10]     packing[37]  52
    x[10]     packing[38]  183
    x[10]     packing[39]  33
    x[10]     packing[40]  6
    x[10]     packing[41]  38
    x[10]     packing[42]  94
    x[10]     packing[43]  65
    x[10]     packing[44]  99
    x[10]     packing[46]  59
    x[10]     packing[48]  56
    x[10]     packing[49]  55
    x[10]     R59       1
    x[11]     OBJ       3
    x[11]     packing[0]  98
    x[11]     packing[1]  65
    x[11]     packing[2]  154
    x[11]     packing[4]  114
    x[11]     packing[5]  38
    x[11]     packing[7]  96
    x[11]     packing[9]  105
    x[11]     packing[11]  46
    x[11]     packing[12]  107
    x[11]     packing[13]  60
    x[11]     packing[14]  84
    x[11]     packing[15]  8
    x[11]     packing[16]  7
    x[11]     packing[17]  132
    x[11]     packing[18]  94
    x[11]     packing[19]  21
    x[11]     packing[20]  48
    x[11]     packing[21]  153
    x[11]     packing[22]  101
    x[11]     packing[24]  89
    x[11]     packing[25]  85
    x[11]     packing[26]  186
    x[11]     packing[27]  47
    x[11]     packing[28]  76
    x[11]     packing[29]  123
    x[11]     packing[30]  123
    x[11]     packing[33]  1
    x[11]     packing[34]  49
    x[11]     packing[35]  145
    x[11]     packing[37]  158
    x[11]     packing[39]  183
    x[11]     packing[40]  169
    x[11]     packing[41]  55
    x[11]     packing[42]  170
    x[11]     packing[43]  128
    x[11]     packing[44]  83
    x[11]     packing[46]  32
    x[11]     packing[48]  25
    x[11]     packing[49]  144
    x[12]     OBJ       70
    x[12]     packing[0]  90
    x[12]     packing[1]  156
    x[12]     packing[3]  167
    x[12]     packing[5]  111
    x[12]     packing[6]  82
    x[12]     packing[7]  170
    x[12]     packing[8]  5
    x[12]     packing[9]  75
    x[12]     packing[10]  57
    x[12]     packing[13]  91
    x[12]     packing[15]  142
    x[12]     packing[16]  11
    x[12]     packing[17]  47
    x[12]     packing[18]  156
    x[12]     packing[19]  154
    x[12]     packing[22]  13
    x[12]     packing[23]  6
    x[12]     packing[25]  176
    x[12]     packing[26]  18
    x[12]     packing[27]  95
    x[12]     packing[28]  171
    x[12]     packing[29]  169
    x[12]     packing[30]  95
    x[12]     packing[31]  120
    x[12]     packing[32]  74
    x[12]     packing[33]  146
    x[12]     packing[34]  40
    x[12]     packing[35]  79
    x[12]     packing[37]  143
    x[12]     packing[38]  113
    x[12]     packing[39]  8
    x[12]     packing[40]  157
    x[12]     packing[41]  114
    x[12]     packing[42]  98
    x[12]     packing[43]  121
    x[12]     packing[44]  185
    x[12]     packing[45]  150
    x[12]     packing[47]  52
    x[12]     packing[48]  7
    x[12]     packing[49]  159
    x[13]     OBJ       112
    x[13]     packing[1]  178
    x[13]     packing[3]  194
    x[13]     packing[5]  130
    x[13]     packing[6]  89
    x[13]     packing[7]  154
    x[13]     packing[8]  5
    x[13]     packing[9]  82
    x[13]     packing[10]  13
    x[13]     packing[11]  29
    x[13]     packing[12]  150
    x[13]     packing[14]  79
    x[13]     packing[15]  122
    x[13]     packing[16]  101
    x[13]     packing[17]  98
    x[13]     packing[18]  124
    x[13]     packing[19]  188
    x[13]     packing[20]  55
    x[13]     packing[21]  85
    x[13]     packing[24]  134
    x[13]     packing[25]  46
    x[13]     packing[26]  97
    x[13]     packing[27]  116
    x[13]     packing[28]  198
    x[13]     packing[29]  137
    x[13]     packing[31]  132
    x[13]     packing[32]  19
    x[13]     packing[34]  156
    x[13]     packing[35]  186
    x[13]     packing[36]  166
    x[13]     packing[37]  142
    x[13]     packing[38]  28
    x[13]     packing[39]  191
    x[13]     packing[40]  141
    x[13]     packing[43]  190
    x[13]     packing[44]  51
    x[13]     packing[45]  122
    x[13]     packing[49]  69
    x[14]     OBJ       181
    x[14]     packing[1]  149
    x[14]     packing[2]  69
    x[14]     packing[3]  175
    x[14]     packing[4]  75
    x[14]     packing[7]  74
    x[14]     packing[9]  23
    x[14]     packing[11]  192
    x[14]     packing[12]  145
    x[14]     packing[13]  176
    x[14]     packing[14]  52
    x[14]     packing[17]  85
    x[14]     packing[18]  4
    x[14]     packing[19]  63
    x[14]     packing[22]  44
    x[14]     packing[23]  184
    x[14]     packing[24]  60
    x[14]     packing[25]  101
    x[14]     packing[26]  6
    x[14]     packing[27]  135
    x[14]     packing[28]  101
    x[14]     packing[29]  113
    x[14]     packing[30]  35
    x[14]     packing[31]  161
    x[14]     packing[32]  19
    x[14]     packing[33]  137
    x[14]     packing[34]  111
    x[14]     packing[35]  125
    x[14]     packing[36]  23
    x[14]     packing[37]  167
    x[14]     packing[38]  127
    x[14]     packing[39]  9
    x[14]     packing[40]  103
    x[14]     packing[41]  83
    x[14]     packing[42]  49
    x[14]     packing[44]  113
    x[14]     packing[45]  198
    x[14]     packing[46]  32
    x[14]     packing[47]  23
    x[14]     R59       1
    x[15]     OBJ       11
    x[15]     packing[0]  96
    x[15]     packing[1]  26
    x[15]     packing[2]  2
    x[15]     packing[3]  108
    x[15]     packing[4]  77
    x[15]     packing[5]  76
    x[15]     packing[6]  79
    x[15]     packing[7]  117
    x[15]     packing[9]  132
    x[15]     packing[10]  162
    x[15]     packing[11]  79
    x[15]     packing[13]  92
    x[15]     packing[14]  191
    x[15]     packing[15]  53
    x[15]     packing[16]  21
    x[15]     packing[17]  77
    x[15]     packing[18]  193
    x[15]     packing[19]  17
    x[15]     packing[20]  97
    x[15]     packing[23]  168
    x[15]     packing[26]  94
    x[15]     packing[27]  102
    x[15]     packing[28]  53
    x[15]     packing[30]  21
    x[15]     packing[31]  150
    x[15]     packing[32]  199
    x[15]     packing[33]  4
    x[15]     packing[34]  179
    x[15]     packing[35]  122
    x[15]     packing[36]  121
    x[15]     packing[37]  157
    x[15]     packing[38]  55
    x[15]     packing[40]  115
    x[15]     packing[41]  13
    x[15]     packing[44]  85
    x[15]     packing[45]  23
    x[15]     packing[47]  69
    x[15]     packing[48]  147
    x[15]     packing[49]  138
    x[16]     OBJ       173
    x[16]     packing[1]  13
    x[16]     packing[2]  159
    x[16]     packing[3]  160
    x[16]     packing[6]  138
    x[16]     packing[7]  39
    x[16]     packing[12]  155
    x[16]     packing[14]  141
    x[16]     packing[15]  53
    x[16]     packing[17]  13
    x[16]     packing[18]  167
    x[16]     packing[19]  80
    x[16]     packing[20]  55
    x[16]     packing[21]  111
    x[16]     packing[22]  130
    x[16]     packing[23]  129
    x[16]     packing[24]  97
    x[16]     packing[25]  56
    x[16]     packing[29]  49
    x[16]     packing[30]  58
    x[16]     packing[31]  184
    x[16]     packing[32]  44
    x[16]     packing[34]  51
    x[16]     packing[35]  3
    x[16]     packing[36]  10
    x[16]     packing[38]  194
    x[16]     packing[40]  145
    x[16]     packing[41]  149
    x[16]     packing[42]  176
    x[16]     packing[43]  172
    x[16]     packing[44]  21
    x[16]     packing[46]  189
    x[16]     packing[48]  163
    x[16]     R59       1
    x[17]     OBJ       137
    x[17]     packing[0]  176
    x[17]     packing[1]  23
    x[17]     packing[2]  61
    x[17]     packing[3]  53
    x[17]     packing[4]  184
    x[17]     packing[5]  103
    x[17]     packing[7]  182
    x[17]     packing[9]  191
    x[17]     packing[10]  170
    x[17]     packing[11]  20
    x[17]     packing[12]  58
    x[17]     packing[13]  162
    x[17]     packing[14]  36
    x[17]     packing[15]  84
    x[17]     packing[16]  122
    x[17]     packing[18]  190
    x[17]     packing[20]  153
    x[17]     packing[21]  185
    x[17]     packing[22]  180
    x[17]     packing[24]  169
    x[17]     packing[25]  183
    x[17]     packing[26]  188
    x[17]     packing[27]  107
    x[17]     packing[28]  194
    x[17]     packing[30]  191
    x[17]     packing[32]  77
    x[17]     packing[33]  56
    x[17]     packing[34]  120
    x[17]     packing[36]  105
    x[17]     packing[38]  5
    x[17]     packing[39]  30
    x[17]     packing[41]  111
    x[17]     packing[42]  87
    x[17]     packing[43]  86
    x[17]     packing[44]  16
    x[17]     packing[45]  143
    x[17]     packing[46]  114
    x[17]     packing[48]  191
    x[17]     packing[49]  18
    x[17]     R59       1
    x[18]     OBJ       105
    x[18]     packing[1]  144
    x[18]     packing[2]  154
    x[18]     packing[3]  5
    x[18]     packing[4]  187
    x[18]     packing[5]  22
    x[18]     packing[8]  128
    x[18]     packing[10]  189
    x[18]     packing[11]  159
    x[18]     packing[14]  132
    x[18]     packing[16]  134
    x[18]     packing[17]  58
    x[18]     packing[18]  82
    x[18]     packing[19]  19
    x[18]     packing[20]  89
    x[18]     packing[21]  120
    x[18]     packing[24]  56
    x[18]     packing[25]  39
    x[18]     packing[26]  50
    x[18]     packing[27]  168
    x[18]     packing[29]  71
    x[18]     packing[31]  103
    x[18]     packing[33]  138
    x[18]     packing[35]  74
    x[18]     packing[36]  196
    x[18]     packing[37]  40
    x[18]     packing[38]  81
    x[18]     packing[39]  116
    x[18]     packing[41]  125
    x[18]     packing[42]  69
    x[18]     packing[43]  63
    x[18]     packing[44]  33
    x[18]     packing[46]  85
    x[18]     packing[48]  82
    x[18]     packing[49]  157
    x[19]     OBJ       170
    x[19]     packing[0]  75
    x[19]     packing[1]  72
    x[19]     packing[2]  102
    x[19]     packing[3]  159
    x[19]     packing[4]  63
    x[19]     packing[5]  63
    x[19]     packing[7]  151
    x[19]     packing[10]  85
    x[19]     packing[11]  99
    x[19]     packing[12]  190
    x[19]     packing[14]  135
    x[19]     packing[15]  13
    x[19]     packing[16]  25
    x[19]     packing[19]  172
    x[19]     packing[22]  30
    x[19]     packing[24]  73
    x[19]     packing[25]  187
    x[19]     packing[27]  17
    x[19]     packing[28]  195
    x[19]     packing[29]  49
    x[19]     packing[30]  94
    x[19]     packing[32]  139
    x[19]     packing[34]  188
    x[19]     packing[35]  185
    x[19]     packing[37]  147
    x[19]     packing[38]  50
    x[19]     packing[40]  13
    x[19]     packing[41]  102
    x[19]     packing[42]  170
    x[19]     packing[44]  140
    x[19]     packing[46]  21
    x[19]     packing[48]  175
    x[19]     R59       1
    x[20]     OBJ       43
    x[20]     packing[0]  87
    x[20]     packing[1]  145
    x[20]     packing[2]  75
    x[20]     packing[4]  36
    x[20]     packing[5]  145
    x[20]     packing[6]  165
    x[20]     packing[7]  31
    x[20]     packing[8]  3
    x[20]     packing[10]  39
    x[20]     packing[11]  183
    x[20]     packing[14]  165
    x[20]     packing[15]  113
    x[20]     packing[17]  11
    x[20]     packing[18]  101
    x[20]     packing[19]  35
    x[20]     packing[22]  48
    x[20]     packing[23]  139
    x[20]     packing[24]  5
    x[20]     packing[25]  188
    x[20]     packing[26]  97
    x[20]     packing[30]  31
    x[20]     packing[31]  37
    x[20]     packing[32]  156
    x[20]     packing[33]  180
    x[20]     packing[35]  140
    x[20]     packing[37]  22
    x[20]     packing[38]  186
    x[20]     packing[39]  117
    x[20]     packing[41]  99
    x[20]     packing[42]  7
    x[20]     packing[43]  99
    x[20]     packing[44]  14
    x[20]     packing[45]  121
    x[20]     packing[47]  38
    x[20]     packing[48]  31
    x[20]     packing[49]  133
    MARKER    'MARKER'                 'INTEND'
RHS
    RHS1      packing[0]  713
    RHS1      packing[1]  825
    RHS1      packing[2]  660
    RHS1      packing[3]  823
    RHS1      packing[4]  730
    RHS1      packing[5]  681
    RHS1      packing[6]  565
    RHS1      packing[7]  838
    RHS1      packing[8]  617
    RHS1      packing[9]  657
    RHS1      packing[10]  774
    RHS1      packing[11]  612
    RHS1      packing[12]  843
    RHS1      packing[13]  645
    RHS1      packing[14]  772
    RHS1      packing[15]  572
    RHS1      packing[16]  491
    RHS1      packing[17]  560
    RHS1      packing[18]  1048
    RHS1      packing[19]  671
    RHS1      packing[20]  592
    RHS1      packing[21]  598
    RHS1      packing[22]  690
    RHS1      packing[23]  777
    RHS1      packing[24]  471
    RHS1      packing[25]  963
    RHS1      packing[26]  970
    RHS1      packing[27]  792
    RHS1      packing[28]  739
    RHS1      packing[29]  846
    RHS1      packing[30]  641
    RHS1      packing[31]  986
    RHS1      packing[32]  713
    RHS1      packing[33]  803
    RHS1      packing[34]  699
    RHS1      packing[35]  921
    RHS1      packing[36]  767
    RHS1      packing[37]  824
    RHS1      packing[38]  899
    RHS1      packing[39]  650
    RHS1      packing[40]  821
    RHS1      packing[41]  769
    RHS1      packing[42]  861
    RHS1      packing[43]  672
    RHS1      packing[44]  709
    RHS1      packing[45]  741
    RHS1      packing[46]  695
    RHS1      packing[47]  290
    RHS1      packing[48]  882
    RHS1      packing[49]  786
    RHS1      R59       6
BOUNDS
 BV BND1      x[1]    
 BV BND1      x[2]    
 BV BND1      x[3]    
 BV BND1      x[4]    
 BV BND1      x[5]    
 BV BND1      x[6]    
 BV BND1      x[7]    
 BV BND1      x[8]    
 BV BND1      x[9]    
 BV BND1      x[10]   
 BV BND1      x[11]   
 BV BND1      x[12]   
 BV BND1      x[13]   
 BV BND1      x[14]   
 BV BND1      x[15]   
 BV BND1      x[16]   
 BV BND1      x[17]   
 BV BND1      x[18]   
 BV BND1      x[19]   
 BV BND1      x[20]   
ENDATA
